111
200
140	2
139	2
138	1
137	2
136	2
135	2
134	2
132	3
131	4
130	1
129	2
128	1
127	1
126	2
125	1
124	3
123	3
122	2
121	1
120	2
118	4
117	1
116	4
115	2
114	4
113	5
112	2
111	6
110	3
109	4
108	2
106	3
105	3
104	3
103	2
102	3
101	4
100	4
99	2
98	6
97	1
96	3
95	1
94	5
93	2
92	2
91	1
90	4
89	1
88	1
87	2
86	6
85	3
84	1
83	1
81	2
80	1
79	2
78	3
77	2
75	2
74	1
73	3
72	2
71	3
70	5
69	1
68	2
66	2
65	3
64	2
63	2
62	2
61	5
60	2
59	6
58	3
57	4
56	4
55	5
54	2
53	3
52	2
50	4
49	3
48	2
47	2
46	4
45	2
44	4
43	3
42	1
41	3
40	3
39	2
38	1
37	3
36	2
35	3
34	4
33	6
32	1
31	3
29	3
28	3
26	2
25	4
24	5
23	4
22	4
21	3
